NAME: I28313-n71-k7
COMMENT : (Fake et al, No of trucks: 7, Optimal value: )
TYPE : CVRP
DIMENSION : 71
EDGE_WEIGHT_TYPE : EUC_2D
CAPACITY : 25
NODE_COORD_SECTION
1 729 395
2 604 640
3 638 140
4 984 544
5 648 810
6 9 899
7 334 740
8 300 195
9 894 240
10 306 245
11 899 479
12 832 369
13 653 375
14 988 914
15 294 402
16 630 860
17 650 898
18 51 675
19 908 447
20 490 980
21 960 476
22 76 959
23 930 336
24 620 96
25 70 24
26 973 54
27 767 756
28 558 314
29 213 332
30 911 287
31 563 104
32 865 607
33 874 7
34 308 18
35 81 46
36 489 111
37 872 858
38 435 409
39 733 363
40 488 594
41 167 576
42 14 145
43 108 553
44 315 965
45 503 731
46 785 739
47 788 158
48 659 79
49 187 634
50 923 325
51 210 545
52 720 599
53 611 253
54 428 46
55 15 460
56 1 312
57 814 85
58 627 963
59 458 912
60 769 505
61 626 48
62 631 275
63 867 704
64 876 949
65 154 450
66 531 299
67 193 890
68 374 792
69 821 614
70 701 389
71 718 621
DEMAND_SECTION
1 0
2 1
3 2
4 3
5 3
6 2
7 1
8 2
9 2
10 3
11 1
12 1
13 3
14 3
15 3
16 1
17 1
18 1
19 2
20 2
21 1
22 3
23 1
24 1
25 1
26 2
27 1
28 1
29 3
30 2
31 2
32 3
33 2
34 1
35 3
36 3
37 2
38 1
39 1
40 1
41 1
42 3
43 1
44 3
45 3
46 2
47 2
48 1
49 3
50 2
51 3
52 2
53 3
54 3
55 3
56 3
57 3
58 3
59 2
60 2
61 2
62 3
63 2
64 1
65 2
66 3
67 2
68 1
69 2
70 3
71 1
DEPOT_SECTION
 1
 -1
 EOF 